Instance: Data/Instances_txt/inst_100_50_1.txt
SetUpTime: 361.9454860687256

Gurobi 10.0.1 (mac64[x86]) logging started Di  1 Aug 18:20:59 2023

Set parameter LogFile to value "Output/MILP_inst_100_50_1_2023-08-01_16-28-50.txt"
Set parameter TimeLimit to value 2700

Gurobi 10.0.1 (mac64[x86]) logging started Di  1 Aug 18:20:59 2023

Set parameter LogFile to value "Output/MILP_inst_100_50_1_2023-08-01_16-28-50.txt"
Gurobi Optimizer version 10.0.1 build v10.0.1rc0 (mac64[x86])

CPU model: Intel(R) Core(TM) i5-1038NG7 CPU @ 2.00GHz
Thread count: 4 physical cores, 8 logical processors, using up to 8 threads

Optimize a model with 201 rows, 221775 columns and 2676783 nonzeros
Model fingerprint: 0xa68fc633
Variable types: 0 continuous, 221775 integer (0 binary)
Coefficient statistics:
  Matrix range     [1e+00, 1e+00]
  Objective range  [2e+00, 1e+04]
  Bounds range     [1e+00, 1e+00]
  RHS range        [1e+00, 1e+00]
Presolve removed 0 rows and 0 columns (presolve time = 5s) ...
Presolve removed 0 rows and 351 columns
Presolve time: 7.70s
Presolved: 201 rows, 221424 columns, 2672449 nonzeros
Variable types: 0 continuous, 221424 integer (221424 binary)

Root simplex log...

Iteration    Objective       Primal Inf.    Dual Inf.      Time
       0    0.0000000e+00   1.020000e+02   0.000000e+00     10s

Starting sifting (using dual simplex for sub-problems)...

    Iter     Pivots    Primal Obj      Dual Obj        Time
       0          0     infinity      0.0000000e+00     10s
       1       1186   1.0200000e+08   3.0002144e+02     10s
       2       1890   9.5625790e+07   3.1974708e+03     10s
       3       2755   7.9105102e+07   4.8334479e+03     10s
       4       4066   6.5493821e+07   6.5421196e+03     10s
       5       5492   5.3512400e+07   7.9757597e+03     10s
       6       7802   3.5329250e+07   7.8098620e+03     11s
       7      11225   3.1400433e+07   8.3621643e+03     11s
       8      16287   2.1805028e+07   7.3961911e+03     11s
       9      19477   1.7055467e+07   8.3266253e+03     11s
      10      21829   1.4486761e+07   8.9114114e+03     11s
      11      24959   7.9869541e+06   9.1841350e+03     12s
      12      28152   2.4414206e+06   9.2290154e+03     12s
      13      31921   2.2379748e+05   9.2480353e+03     12s
      14      34326   1.9932773e+04   8.3747196e+03     12s
      15      36965   1.9102796e+04   8.8282734e+03     13s
      16      39252   1.8958538e+04   1.3544513e+04     13s
      17      41671   1.8749743e+04   1.4197467e+04     13s
      18      44008   1.8566870e+04   1.4595779e+04     13s
      19      47924   1.8361286e+04   1.5526363e+04     14s
      20      50720   1.8033252e+04   1.6441654e+04     14s
      21      53628   1.7608638e+04   1.7414076e+04     14s
      22      56465   1.7397985e+04   1.7830974e+04     15s

Sifting complete

   58308    2.0229548e+04   0.000000e+00   0.000000e+00     15s

Root relaxation: objective 2.022955e+04, 58308 iterations, 4.77 seconds (8.15 work units)

    Nodes    |    Current Node    |     Objective Bounds      |     Work
 Expl Unexpl |  Obj  Depth IntInf | Incumbent    BestBd   Gap | It/Node Time

     0     0 20229.5482    0  143          - 20229.5482      -     -   18s
     0     0 20234.1689    0  149          - 20234.1689      -     -   20s
     0     0 20235.2329    0  151          - 20235.2329      -     -   20s
     0     0 20235.2329    0  151          - 20235.2329      -     -   23s
     0     0 20238.1938    0  156          - 20238.1938      -     -   48s
     0     0 20238.3653    0  158          - 20238.3653      -     -   50s
     0     0 20238.6016    0  159          - 20238.6016      -     -   52s
     0     0 20238.7421    0  154          - 20238.7421      -     -   53s
     0     0 20238.9858    0  157          - 20238.9858      -     -   54s
     0     0 20239.0203    0  160          - 20239.0203      -     -   54s
     0     0 20239.1212    0  158          - 20239.1212      -     -   54s
     0     0 20239.1647    0  156          - 20239.1647      -     -   55s
     0     0 20239.1670    0  160          - 20239.1670      -     -   55s
     0     0 20239.1754    0  158          - 20239.1754      -     -   55s
     0     0 20239.1870    0  159          - 20239.1870      -     -   55s
     0     0 20333.5117    0  186          - 20333.5117      -     -   80s
     0     0 20334.4053    0  173          - 20334.4053      -     -   82s
     0     0 20334.7817    0  180          - 20334.7817      -     -   83s
     0     0 20335.2599    0  178          - 20335.2599      -     -   84s
     0     0 20335.5207    0  187          - 20335.5207      -     -   85s
     0     0 20335.6996    0  187          - 20335.6996      -     -   86s
     0     0 20335.8150    0  189          - 20335.8150      -     -   87s
     0     0 20335.9832    0  186          - 20335.9832      -     -   87s
     0     0 20335.9849    0  187          - 20335.9849      -     -   87s
     0     0 20335.9849    0  187          - 20335.9849      -     -   88s
     0     0 20335.9851    0  186          - 20335.9851      -     -   88s
     0     0 20346.6931    0  181          - 20346.6931      -     -  106s
     0     0 20346.8615    0  182          - 20346.8615      -     -  107s
     0     0 20346.8781    0  190          - 20346.8781      -     -  107s
     0     0 20346.8997    0  176          - 20346.8997      -     -  108s
     0     0 20351.0470    0  192          - 20351.0470      -     -  110s
     0     0 20353.8923    0  188          - 20353.8923      -     -  112s
     0     0 20354.2897    0  189          - 20354.2897      -     -  113s
     0     0 20354.3639    0  189          - 20354.3639      -     -  114s
     0     0 20354.5102    0  191          - 20354.5102      -     -  115s
     0     0 20354.5379    0  194          - 20354.5379      -     -  115s
     0     0 20354.5511    0  192          - 20354.5511      -     -  116s
     0     0 20354.5587    0  194          - 20354.5587      -     -  116s
     0     0 20354.5643    0  192          - 20354.5643      -     -  117s
     0     0 20354.5720    0  194          - 20354.5720      -     -  117s
     0     0 20354.5798    0  193          - 20354.5798      -     -  117s
     0     0 20430.4318    0  220          - 20430.4318      -     -  147s
     0     0 20431.2384    0  212          - 20431.2384      -     -  150s
     0     0 20431.8273    0  214          - 20431.8273      -     -  152s
     0     0 20432.3236    0  211          - 20432.3236      -     -  154s
     0     0 20432.6029    0  214          - 20432.6029      -     -  155s
     0     0 20432.6782    0  215          - 20432.6782      -     -  156s
     0     0 20432.8576    0  216          - 20432.8576      -     -  157s
     0     0 20432.9686    0  214          - 20432.9686      -     -  158s
     0     0 20433.0941    0  217          - 20433.0941      -     -  159s
     0     0 20433.1421    0  212          - 20433.1421      -     -  160s
     0     0 20433.2105    0  211          - 20433.2105      -     -  160s
     0     0 20440.9985    0  210          - 20440.9985      -     -  169s
     0     0 20441.1332    0  212          - 20441.1332      -     -  170s
     0     0 20441.1559    0  207          - 20441.1559      -     -  170s
     0     0 20441.1764    0  204          - 20441.1764      -     -  171s
     0     0 20441.1807    0  202          - 20441.1807      -     -  171s
     0     0 20441.5247    0  204          - 20441.5247      -     -  173s
     0     0 20441.5288    0  203          - 20441.5288      -     -  173s
     0     0 20486.3742    0  235          - 20486.3742      -     -  197s
     0     0 20488.9213    0  237          - 20488.9213      -     -  201s
     0     0 20489.6116    0  236          - 20489.6116      -     -  203s
     0     0 20489.9153    0  238          - 20489.9153      -     -  206s
     0     0 20489.9504    0  238          - 20489.9504      -     -  207s
     0     0 20490.1342    0  239          - 20490.1342      -     -  208s
     0     0 20490.1621    0  237          - 20490.1621      -     -  208s
     0     0 20490.1647    0  234          - 20490.1647      -     -  208s
     0     0 20490.1651    0  233          - 20490.1651      -     -  209s
     0     0 20490.1652    0  233          - 20490.1652      -     -  209s
H    0     0                    24047.000000 20490.1652  14.8%     -  210s
H    0     0                    21833.000000 20490.1652  6.15%     -  327s
     0     0 20491.0223    0  239 21833.0000 20491.0223  6.15%     -  330s
     0     0 20491.4046    0  233 21833.0000 20491.4046  6.14%     -  332s
     0     0 20491.4897    0  232 21833.0000 20491.4897  6.14%     -  333s
     0     0 20491.5199    0  230 21833.0000 20491.5199  6.14%     -  333s
     0     0 20491.5199    0  230 21833.0000 20491.5199  6.14%     -  334s
     0     0 20519.5788    0  252 21833.0000 20519.5788  6.02%     -  353s
     0     0 20520.1236    0  248 21833.0000 20520.1236  6.01%     -  356s
     0     0 20520.1465    0  244 21833.0000 20520.1465  6.01%     -  356s
     0     0 20520.1526    0  245 21833.0000 20520.1526  6.01%     -  357s
     0     0 20520.1644    0  245 21833.0000 20520.1644  6.01%     -  357s
     0     0 20520.1777    0  246 21833.0000 20520.1777  6.01%     -  358s
     0     0 20521.0629    0  244 21833.0000 20521.0629  6.01%     -  387s
     0     0 20521.1725    0  245 21833.0000 20521.1725  6.01%     -  389s
     0     0 20542.1675    0  268 21833.0000 20542.1675  5.91%     -  411s
     0     0 20542.6382    0  266 21833.0000 20542.6382  5.91%     -  414s
     0     0 20542.9473    0  264 21833.0000 20542.9473  5.91%     -  416s
     0     0 20543.1624    0  271 21833.0000 20543.1624  5.91%     -  418s
     0     0 20543.1724    0  264 21833.0000 20543.1724  5.91%     -  418s
     0     0 20543.2744    0  267 21833.0000 20543.2744  5.91%     -  419s
     0     0 20543.2987    0  272 21833.0000 20543.2987  5.91%     -  420s
     0     0 20543.3603    0  267 21833.0000 20543.3603  5.91%     -  422s
     0     0 20543.3619    0  263 21833.0000 20543.3619  5.91%     -  422s
     0     0 20543.3620    0  263 21833.0000 20543.3620  5.91%     -  422s
     0     0 20543.7609    0  274 21833.0000 20543.7609  5.91%     -  427s
     0     0 20543.8046    0  272 21833.0000 20543.8046  5.90%     -  428s
     0     0 20543.8159    0  270 21833.0000 20543.8159  5.90%     -  429s
     0     0 20543.8189    0  270 21833.0000 20543.8189  5.90%     -  429s
     0     0 20543.8209    0  270 21833.0000 20543.8209  5.90%     -  429s
     0     0 20543.8352    0  270 21833.0000 20543.8352  5.90%     -  430s
     0     0 20543.8363    0  272 21833.0000 20543.8363  5.90%     -  430s
     0     0 20543.8375    0  271 21833.0000 20543.8375  5.90%     -  430s
     0     0 20543.8375    0  272 21833.0000 20543.8375  5.90%     -  431s
     0     0 20556.2212    0  302 21833.0000 20556.2212  5.85%     -  451s
     0     0 20556.3328    0  298 21833.0000 20556.3328  5.85%     -  453s
     0     0 20556.4938    0  289 21833.0000 20556.4938  5.85%     -  455s
     0     0 20556.5007    0  299 21833.0000 20556.5007  5.85%     -  456s
     0     0 20556.5017    0  298 21833.0000 20556.5017  5.85%     -  456s
     0     0 20556.5024    0  290 21833.0000 20556.5024  5.85%     -  456s
H    0     0                    21825.000000 20556.5024  5.81%     -  459s
     0     0 20556.5909    0  293 21825.0000 20556.5909  5.81%     -  461s
     0     0 20556.5918    0  292 21825.0000 20556.5918  5.81%     -  462s
     0     0 20556.5918    0  292 21825.0000 20556.5918  5.81%     -  462s
     0     0 20564.9331    0  308 21825.0000 20564.9331  5.77%     -  480s
     0     0 20565.0987    0  315 21825.0000 20565.0987  5.77%     -  483s
     0     0 20565.1404    0  316 21825.0000 20565.1404  5.77%     -  486s
     0     0 20565.1539    0  315 21825.0000 20565.1539  5.77%     -  487s
     0     0 20565.1603    0  316 21825.0000 20565.1603  5.77%     -  487s
     0     0 20565.1664    0  317 21825.0000 20565.1664  5.77%     -  488s
     0     0 20565.1683    0  316 21825.0000 20565.1683  5.77%     -  489s
     0     0 20565.1714    0  313 21825.0000 20565.1714  5.77%     -  489s
     0     0 20565.1734    0  316 21825.0000 20565.1734  5.77%     -  490s
     0     0 20565.1756    0  316 21825.0000 20565.1756  5.77%     -  490s
     0     0 20565.1759    0  316 21825.0000 20565.1759  5.77%     -  490s
H    0     0                    21551.000000 20565.1759  4.57%     -  492s
     0     0 20567.6133    0  323 21551.0000 20567.6133  4.56%     -  506s
     0     0 20567.6133    0  158 21551.0000 20567.6133  4.56%     -  517s
H    0     0                    21543.000000 20567.6133  4.53%     -  522s
     0     0 20567.6133    0  192 21543.0000 20567.6133  4.53%     -  546s
     0     0 20567.6133    0  178 21543.0000 20567.6133  4.53%     -  548s
     0     0 20567.6133    0  172 21543.0000 20567.6133  4.53%     -  549s
     0     0 20567.6133    0  172 21543.0000 20567.6133  4.53%     -  549s
     0     0 20567.6133    0  173 21543.0000 20567.6133  4.53%     -  550s
     0     0 20567.6133    0  173 21543.0000 20567.6133  4.53%     -  550s
     0     0 20567.6133    0  166 21543.0000 20567.6133  4.53%     -  550s
     0     0 20567.6133    0  177 21543.0000 20567.6133  4.53%     -  551s
     0     0 20567.6133    0  223 21543.0000 20567.6133  4.53%     -  611s
     0     0 20567.6133    0  222 21543.0000 20567.6133  4.53%     -  615s
     0     0 20567.6133    0  228 21543.0000 20567.6133  4.53%     -  617s
     0     0 20567.6133    0  227 21543.0000 20567.6133  4.53%     -  618s
     0     0 20567.6133    0  226 21543.0000 20567.6133  4.53%     -  619s
     0     0 20567.6133    0  223 21543.0000 20567.6133  4.53%     -  620s
     0     0 20567.6133    0  224 21543.0000 20567.6133  4.53%     -  620s
     0     0 20567.6133    0  224 21543.0000 20567.6133  4.53%     -  621s
     0     0 20567.6133    0  224 21543.0000 20567.6133  4.53%     -  621s
     0     0 20567.6133    0  224 21543.0000 20567.6133  4.53%     -  621s
     0     0 20567.6133    0  253 21543.0000 20567.6133  4.53%     -  642s
     0     0 20567.6133    0  255 21543.0000 20567.6133  4.53%     -  645s
     0     0 20567.6133    0  251 21543.0000 20567.6133  4.53%     -  646s
     0     0 20567.6133    0  253 21543.0000 20567.6133  4.53%     -  646s
     0     0 20567.6133    0  253 21543.0000 20567.6133  4.53%     -  647s
     0     0 20567.6133    0  252 21543.0000 20567.6133  4.53%     -  647s
     0     0 20567.6133    0  254 21543.0000 20567.6133  4.53%     -  648s
     0     0 20567.6133    0  250 21543.0000 20567.6133  4.53%     -  648s
     0     0 20567.6133    0  250 21543.0000 20567.6133  4.53%     -  648s
     0     0 20567.6133    0  250 21543.0000 20567.6133  4.53%     -  648s
     0     0 20567.6133    0  257 21543.0000 20567.6133  4.53%     -  666s
     0     0 20567.6133    0  253 21543.0000 20567.6133  4.53%     -  668s
     0     0 20567.6133    0  254 21543.0000 20567.6133  4.53%     -  668s
     0     0 20567.6133    0  253 21543.0000 20567.6133  4.53%     -  669s
     0     0 20567.6133    0  254 21543.0000 20567.6133  4.53%     -  669s
     0     0 20567.6133    0  254 21543.0000 20567.6133  4.53%     -  670s
     0     0 20567.6133    0  254 21543.0000 20567.6133  4.53%     -  670s
     0     0 20567.6133    0  256 21543.0000 20567.6133  4.53%     -  670s
     0     0 20567.6133    0  254 21543.0000 20567.6133  4.53%     -  670s
     0     0 20567.6133    0  258 21543.0000 20567.6133  4.53%     -  671s
     0     0 20567.6133    0  259 21543.0000 20567.6133  4.53%     -  671s
     0     0 20567.6133    0  266 21543.0000 20567.6133  4.53%     -  684s
     0     0 20567.6133    0  274 21543.0000 20567.6133  4.53%     -  687s
     0     0 20567.6133    0  274 21543.0000 20567.6133  4.53%     -  688s
     0     0 20567.6133    0  272 21543.0000 20567.6133  4.53%     -  688s
     0     0 20567.6133    0  271 21543.0000 20567.6133  4.53%     -  688s
     0     0 20567.6133    0  273 21543.0000 20567.6133  4.53%     -  689s
     0     0 20567.6133    0  272 21543.0000 20567.6133  4.53%     -  689s
     0     0 20567.6133    0  274 21543.0000 20567.6133  4.53%     -  689s
     0     0 20567.6133    0  284 21543.0000 20567.6133  4.53%     -  704s
     0     0 20567.6133    0  281 21543.0000 20567.6133  4.53%     -  704s
     0     0 20567.6133    0  290 21543.0000 20567.6133  4.53%     -  719s
     0     0 20567.6133    0  291 21543.0000 20567.6133  4.53%     -  720s
     0     0 20567.6133    0  300 21543.0000 20567.6133  4.53%     -  726s
     0     0 20567.6133    0  302 21543.0000 20567.6133  4.53%     -  727s
     0     0 20567.6133    0  300 21543.0000 20567.6133  4.53%     -  727s
     0     0 20567.6133    0  301 21543.0000 20567.6133  4.53%     -  727s
     0     0 20567.6133    0  300 21543.0000 20567.6133  4.53%     -  727s
     0     0 20567.6133    0  299 21543.0000 20567.6133  4.53%     -  728s
     0     0 20567.6133    0  300 21543.0000 20567.6133  4.53%     -  730s
     0     0 20567.6133    0  301 21543.0000 20567.6133  4.53%     -  731s
     0     0 20570.2676    0  313 21543.0000 20570.2676  4.52%     -  747s
     0     0 20570.2766    0  302 21543.0000 20570.2766  4.52%     -  747s
     0     0 20570.2772    0  314 21543.0000 20570.2772  4.52%     -  748s
     0     0 20570.4451    0  325 21543.0000 20570.4451  4.51%     -  755s
     0     0 20571.6307    0  317 21543.0000 20571.6307  4.51%     -  766s
     0     0 20571.6307    0  317 21543.0000 20571.6307  4.51%     -  768s
     0     2 20571.6307    0  317 21543.0000 20571.6307  4.51%     -  814s
     1     4 20573.0872    1  323 21543.0000 20571.6307  4.51%  1819  840s
     3     8 20577.6551    2  304 21543.0000 20573.0872  4.50%  2755  870s
     7    12 20580.6337    3  291 21543.0000 20577.6551  4.48%  2728  885s
    11    16 20686.0556    3  291 21543.0000 20580.6337  4.47%  2402  910s
    15    20 20680.1581    4  269 21543.0000 20580.6337  4.47%  2674  957s
    19    24 20586.3159    4  276 21543.0000 20586.3159  4.44%  2991  975s
    23    28 20625.9880    5  207 21543.0000 20586.3159  4.44%  2799  996s
    27    32 20615.6972    5  280 21543.0000 20600.6371  4.37%  2637 1126s
    31    36 20623.6197    6  276 21543.0000 20603.2854  4.36%  2626 1166s
    35    40 20667.4430    6  287 21543.0000 20603.2854  4.36%  2758 1193s
    39    45 20638.8587    7  260 21543.0000 20605.8363  4.35%  2763 1230s
    44    50 20997.5006    7  266 21543.0000 20605.8363  4.35%  2872 1258s
    50    56 20648.9189    8  260 21543.0000 20605.8363  4.35%  2702 1287s
    56    61 20682.7664    9  255 21543.0000 20605.8363  4.35%  2604 1314s
    61    68 20701.0444    9  234 21543.0000 20605.8363  4.35%  2561 1345s
    68    75 20699.3492   10  255 21543.0000 20605.8363  4.35%  2490 1371s
    75    81 20842.6641   12  226 21543.0000 20605.8363  4.35%  2484 1399s
    81    92 20742.7175   12  256 21543.0000 20605.8363  4.35%  2474 1423s
    92   101 20850.0754   13  237 21543.0000 20605.8363  4.35%  2341 1454s
   101   108     cutoff   14      21543.0000 20605.8363  4.35%  2273 1480s
   112   113 21114.7858   16  223 21543.0000 20605.8363  4.35%  2225 1504s
   129   119     cutoff   19      21543.0000 20605.8363  4.35%  2098 1531s
   148   119 20650.3749    5  261 21543.0000 20605.8363  4.35%  1967 1554s
   168   124 20731.0887    6  222 21543.0000 20605.8363  4.35%  1828 1583s
   175   128 20744.7317    7  233 21543.0000 20605.8363  4.35%  1828 1613s
   179   139 20665.9422    7  238 21543.0000 20605.8363  4.35%  1824 1644s
   190   146 20684.9248    9  220 21543.0000 20605.8363  4.35%  1800 1674s
   198   157 20689.1850   10  223 21543.0000 20605.8363  4.35%  1808 1706s
   209   168 20717.0201   10  221 21543.0000 20605.8363  4.35%  1795 1739s
   220   179 20777.6197   13  207 21543.0000 20605.8363  4.35%  1773 1775s
   234   189 20791.4265   12  222 21543.0000 20605.8363  4.35%  1765 1806s
   248   198 20833.1637   13  197 21543.0000 20605.8363  4.35%  1762 1849s
   268   206 21025.1180   14  211 21543.0000 20605.8363  4.35%  1720 1882s
   283   220 20825.5757   16  190 21543.0000 20605.8363  4.35%  1705 1920s
   302   235 20876.5860   17  190 21543.0000 20605.8363  4.35%  1680 1959s
   322   243 20896.0750   21  187 21543.0000 20605.8363  4.35%  1652 1992s
*  339   241              12    21518.000000 20605.8363  4.24%  1637 1992s
   342   254 20937.6605   23  192 21518.0000 20605.8363  4.24%  1627 2038s
H  372   237                    21007.000000 20605.8363  1.91%  1593 2082s
   396   225     cutoff   27      21007.0000 20612.2131  1.88%  1575 2284s

Cutting planes:
  Clique: 173
  MIR: 1
  Zero half: 3
  RLT: 44

Explored 420 nodes (881805 simplex iterations) in 2700.19 seconds (4272.06 work units)
Thread count was 8 (of 8 available processors)

Solution count 7: 21007 21518 21543 ... 24047

Time limit reached
Best objective 2.100700000000e+04, best bound 2.061300000000e+04, gap 1.8756%

User-callback calls 319997, time in user-callback 1.28 sec

=========================

OUTPUT STATISTICS
Relaxed: false
Time since start: 3068.854019165039
SetUpTime: 361.9454860687256
Objective value: 21007.0
Number of variables: 221775
Solving time: 2706.795070171356
